--- Job gams_0064_002_32_04_0.67_05_0.10_0.90_25_problem.txt Start 02/24/21 19:00:45 35.2.0 r33388c4 WEX-WEI x86 64bit/MS Windows
--- Applying:
    C:\Users\MariaSosnovskaya\GAMS35\gmsprmNT.txt
--- GAMS Parameters defined
    Input C:\Users\MariaSosnovskaya\Downloads\WfmGams3\problems\gams_0064_002_32_04_0.67_05_0.10_0.90_25_problem.txt
    ScrDir C:\Users\MariaSosnovskaya\Downloads\WfmGams3\225k\
    SysDir C:\Users\MariaSosnovskaya\GAMS35\
Licensee: GAMS Evaluation License                        S210124/0001AB-GEN
          Sobolev Institute of Mathematics, Discrete Optimization LaDCE1098
          C:\Users\MariaSosnovskaya\GAMS35\gamslice.txt
          Evaluation license: Not for commercial or production use
GAMS 35.2.0   Copyright (C) 1987-2021 GAMS Development. All rights reserved
--- Starting compilation
--- gams_0064_002_32_04_0.67_05_0.10_0.90_25_problem.txt(22) 3 Mb
--- . gams_0064_002_32_04_0.67_05_0.10_0.90_25.inc(6600) 3 Mb
--- gams_0064_002_32_04_0.67_05_0.10_0.90_25_problem.txt(98) 3 Mb
--- Starting execution: elapsed 0:00:00.031
--- gams_0064_002_32_04_0.67_05_0.10_0.90_25_problem.txt(6621) 4 Mb
--- Generating MIP model mymodel
--- gams_0064_002_32_04_0.67_05_0.10_0.90_25_problem.txt(6677) 9 Mb
---   16,769 rows  12,289 columns  56,289 non-zeroes
---   12,288 discrete-columns
--- Executing CPLEX (Solvelink=2): elapsed 0:00:00.150

IBM ILOG CPLEX   35.2.0 r33388c4 Released Jun 02, 2021 WEI x86 64bit/MS Window

--- GAMS/Cplex licensed for continuous and discrete problems.
--- Space for names approximately 0.61 Mb
--- Use option 'names no' to turn use of names off
--- GMO memory 6.31 Mb (peak 6.40 Mb)
--- Dictionary memory 0.00 Mb
--- Cplex 20.1.0.1 link memory 0.43 Mb (peak 1.99 Mb)
--- Starting Cplex

Version identifier: 20.1.0.1 | 2021-04-07 | 3a818710c
CPXPARAM_Advance                                 0
CPXPARAM_Threads                                 1
CPXPARAM_MIP_Display                             4
CPXPARAM_TimeLimit                               3600
CPXPARAM_MIP_Tolerances_AbsMIPGap                0
Generic callback                                 0x50
Tried aggregator 2 times.
MIP Presolve eliminated 8321 rows and 930 columns.
Aggregator did 192 substitutions.
Reduced MIP has 8256 rows, 11168 columns, and 37573 nonzeros.
Reduced MIP has 11168 binaries, 0 generals, 0 SOSs, and 0 indicators.
Presolve time = 0.08 sec. (42.17 ticks)
Probing fixed 920 vars, tightened 0 bounds.
Probing changed sense of 54 constraints.
Probing time = 0.08 sec. (29.59 ticks)
Tried aggregator 16 times.
MIP Presolve eliminated 432 rows and 981 columns.
Aggregator did 432 substitutions.
Reduced MIP has 7392 rows, 9755 columns, and 33087 nonzeros.
Reduced MIP has 9755 binaries, 0 generals, 0 SOSs, and 0 indicators.
Presolve time = 0.66 sec. (315.61 ticks)
Probing time = 0.02 sec. (4.40 ticks)
Tried aggregator 1 time.
Detecting symmetries...
Reduced MIP has 7392 rows, 9755 columns, and 33087 nonzeros.
Reduced MIP has 9755 binaries, 0 generals, 0 SOSs, and 0 indicators.
Presolve time = 0.06 sec. (29.49 ticks)
Probing time = 0.02 sec. (4.40 ticks)
Clique table members: 24297.
MIP emphasis: balance optimality and feasibility.
MIP search method: dynamic search.
Parallel mode: none, using 1 thread.
Tried aggregator 1 time.
No LP presolve or aggregator reductions.
Presolve time = 0.00 sec. (4.30 ticks)
Initializing dual steep norms . . .

Iteration log . . .
Iteration:     1   Dual objective     =          8835.000000
Perturbation started.
Iteration:   101   Dual objective     =          8835.000000
Iteration:   486   Dual objective     =          8834.999793
Iteration:   837   Dual objective     =          8834.999688
Iteration:  1201   Dual objective     =          8834.999564
Iteration:  1574   Dual objective     =          8834.999440
Iteration:  1947   Dual objective     =          8834.999318
Iteration:  2319   Dual objective     =          8834.999198
Iteration:  2657   Dual objective     =          8834.999159
Iteration:  2990   Dual objective     =          8834.999123
Iteration:  3332   Dual objective     =          8834.999094
Iteration:  3655   Dual objective     =          8834.999070
Iteration:  3970   Dual objective     =          8834.999047
Iteration:  4269   Dual objective     =          8834.999028
Iteration:  4563   Dual objective     =          8834.999012
Iteration:  4816   Dual objective     =          8834.998999
Iteration:  5058   Dual objective     =          8834.998989
Iteration:  5284   Dual objective     =          8834.998980
Iteration:  5489   Dual objective     =          8834.998973
Iteration:  5681   Dual objective     =          8834.998966
Iteration:  5882   Dual objective     =          8834.998960
Iteration:  6067   Dual objective     =          8834.998953
Iteration:  6219   Dual objective     =          8834.998948
Iteration:  6364   Dual objective     =          8834.998945
Iteration:  6508   Dual objective     =          8834.998939
Iteration:  6651   Dual objective     =          8834.998934
Iteration:  6801   Dual objective     =          8834.998929
Iteration:  6938   Dual objective     =          8834.998926
Iteration:  7069   Dual objective     =          8834.998924
Iteration:  7201   Dual objective     =          8834.998921
Iteration:  7333   Dual objective     =          8834.998919
Iteration:  7464   Dual objective     =          8834.998916
Iteration:  7583   Dual objective     =          8834.998914
Iteration:  7697   Dual objective     =          8834.998912
Iteration:  7805   Dual objective     =          8834.998912
Iteration:  7925   Dual objective     =          8834.998911
Removing perturbation.
Root relaxation solution time = 0.97 sec. (555.53 ticks)

        Nodes                                         Cuts/
   Node  Left     Objective  IInf  Best Integer    Best Bound    ItCnt     Gap

      0     0     8835.0000  1462                   8835.0000     8016         
      0     0     8835.0000   502                    Cuts: 18     8330         
      0     0     8835.0000   624                    Cuts: 96     9090         
      0     0     8835.0000   189                 ZeroHalf: 2     9092         
      0     0     8835.0000   513                ZeroHalf: 26    10415         
      0     2     8835.0000    85                   8835.0000    10415         
Elapsed time = 13.65 sec. (8701.25 ticks, tree = 0.01 MB, solutions = 0)
      2     4     8835.0000   647                   8835.0000    12803         
      8     6    infeasible                         8835.0000    16185         
     10     8     8835.0000   968                   8835.0000    19358         
     17    11     8835.0000   429                   8835.0000    21799         
     20    14     8835.0000   237                   8835.0000    22193         
     26    18     8835.0000   596                   8835.0000    26772         
     31    23     8824.0000   495                   8835.0000    29096         
     33    25     8835.0000   509                   8835.0000    32698         
     40    30     8835.0000   248                   8835.0000    35140         
     60    48     8835.0000   428                   8835.0000    45548         
Elapsed time = 20.72 sec. (13094.24 ticks, tree = 0.51 MB, solutions = 0)
     81    69     8835.0000   346                   8835.0000    53068         
     90    78     8835.0000   527                   8835.0000    60389         
    111    99     8835.0000   280                   8835.0000    68271         
    134   122     8835.0000   285                   8835.0000    76582         
    149   137     8835.0000   359                   8835.0000    85293         
    159   147     8835.0000   337                   8835.0000    91461         
    168   156     8835.0000   322                   8835.0000    97787         
    180   168     8835.0000   283                   8835.0000   102144         
    214   202     8835.0000   217                   8835.0000   118548         
    240   228     8835.0000   288                   8835.0000   126469         
Elapsed time = 38.20 sec. (23982.72 ticks, tree = 2.23 MB, solutions = 0)
    288   276     8835.0000   178                   8835.0000   146404         
    305   293     8835.0000   611                   8835.0000   158683         
    353   341     8835.0000   248                   8835.0000   179215         
    363   351     8835.0000   498                   8835.0000   195222         
    379   367     8835.0000   192                   8835.0000   208397         
    399   387     8835.0000   586                   8835.0000   221031         
    436   424     8835.0000   701                   8835.0000   240792         
    446   434     8835.0000   588                   8835.0000   250683         
    450   438     8835.0000   498                   8835.0000   256000         
    469   457     8835.0000   635                   8835.0000   270847         
Elapsed time = 56.33 sec. (34802.46 ticks, tree = 3.32 MB, solutions = 0)
    472   460     8835.0000   709                   8835.0000   277627         
    475   463     8835.0000   520                   8835.0000   283443         
    481   469     8835.0000   676                   8835.0000   292364         
    486   474     8835.0000   560                   8835.0000   301507         

Performing restart 1

Repeating presolve.
Tried aggregator 1 time.
Reduced MIP has 7392 rows, 9755 columns, and 33087 nonzeros.
Reduced MIP has 9755 binaries, 0 generals, 0 SOSs, and 0 indicators.
Presolve time = 0.05 sec. (18.48 ticks)
Tried aggregator 1 time.
Reduced MIP has 7392 rows, 9755 columns, and 33087 nonzeros.
Reduced MIP has 9755 binaries, 0 generals, 0 SOSs, and 0 indicators.
Presolve time = 0.05 sec. (30.08 ticks)
Represolve time = 0.25 sec. (105.79 ticks)
Tried aggregator 1 time.
No LP presolve or aggregator reductions.
Presolve time = 0.02 sec. (4.34 ticks)
Initializing dual steep norms . . .

Iteration log . . .
Iteration:     1   Dual objective     =          8835.000000
Perturbation started.
Iteration:   101   Dual objective     =          8835.000000
Iteration:   480   Dual objective     =          8834.999795
Iteration:   839   Dual objective     =          8834.999688
Iteration:  1199   Dual objective     =          8834.999560
Iteration:  1563   Dual objective     =          8834.999440
Iteration:  1944   Dual objective     =          8834.999321
Iteration:  2307   Dual objective     =          8834.999208
Iteration:  2646   Dual objective     =          8834.999168
Iteration:  2990   Dual objective     =          8834.999131
Iteration:  3318   Dual objective     =          8834.999103
Iteration:  3630   Dual objective     =          8834.999079
Iteration:  3943   Dual objective     =          8834.999057
Iteration:  4250   Dual objective     =          8834.999037
Iteration:  4545   Dual objective     =          8834.999019
Iteration:  4831   Dual objective     =          8834.999005
Iteration:  5081   Dual objective     =          8834.998995
Iteration:  5302   Dual objective     =          8834.998987
Iteration:  5539   Dual objective     =          8834.998978
Iteration:  5720   Dual objective     =          8834.998972
Iteration:  5915   Dual objective     =          8834.998965
Iteration:  6064   Dual objective     =          8834.998959
Iteration:  6202   Dual objective     =          8834.998954
Iteration:  6345   Dual objective     =          8834.998950
Iteration:  6496   Dual objective     =          8834.998944
Iteration:  6632   Dual objective     =          8834.998939
Iteration:  6771   Dual objective     =          8834.998935
Iteration:  6914   Dual objective     =          8834.998930
Iteration:  7056   Dual objective     =          8834.998926
Iteration:  7180   Dual objective     =          8834.998923
Iteration:  7311   Dual objective     =          8834.998921
Iteration:  7441   Dual objective     =          8834.998918
Iteration:  7561   Dual objective     =          8834.998916
Iteration:  7674   Dual objective     =          8834.998915
Iteration:  7793   Dual objective     =          8834.998914
Iteration:  7909   Dual objective     =          8834.998914
Iteration:  8023   Dual objective     =          8834.998913
Removing perturbation.
    501     0     8835.0000   706                    Cuts: 15   321112         
    501     0     8835.0000   520                    Cuts: 95   322336         
    501     0     8835.0000   363                    Cuts: 41   323142         
    501     0     8835.0000   376                    Cuts: 45   323821         
    501     0     8835.0000   103                    Fract: 4   324166         
    501     0     8835.0000   214                    Cuts: 18   325047         
*   501+    0                         8834.0000     8835.0000             0.01%
Found incumbent of value 8834.000000 after 78.59 sec. (48375.33 ticks)
*   501+    0                         8835.0000     8835.0000             0.00%
Found incumbent of value 8835.000000 after 78.59 sec. (48384.17 ticks)
    501     0        cutoff           8835.0000     8835.0000   325047    0.00%
    501     0        cutoff           8835.0000     8835.0000   325047    0.00%

Zero-half cuts applied:  8

Root node processing (before b&c):
  Real time             =   13.62 sec. (8687.11 ticks)
Sequential b&c:
  Real time             =   64.99 sec. (39700.41 ticks)
                          ------------
Total (root+branch&cut) =   78.61 sec. (48387.52 ticks)

--- MIP status (101): integer optimal solution.
--- Cplex Time: 78.61sec (det. 48387.56 ticks)

--- Fixing integer variables and solving final LP...

Version identifier: 20.1.0.1 | 2021-04-07 | 3a818710c
CPXPARAM_Advance                                 2
CPXPARAM_Threads                                 1
CPXPARAM_MIP_Display                             4
CPXPARAM_TimeLimit                               3600
CPXPARAM_MIP_Tolerances_AbsMIPGap                0
Tried aggregator 1 time.
LP Presolve eliminated 16769 rows and 12290 columns.
All rows and columns eliminated.
Presolve time = 0.02 sec. (7.09 ticks)

--- Fixed MIP status (1): optimal.
--- Cplex Time: 0.02sec (det. 12.43 ticks)


Proven optimal solution
MIP Solution:         8835.000000    (325047 iterations, 501 nodes)
Final Solve:          8835.000000    (0 iterations)

Best possible:        8835.000000
Absolute gap:            0.000000
Relative gap:            0.000000

--- Reading solution for model mymodel
--- Executing after solve: elapsed 0:01:18.956
--- gams_0064_002_32_04_0.67_05_0.10_0.90_25_problem.txt(6678) 9 Mb--- gams_0064_002_32_04_0.67_05_0.10_0.90_25_problem.txt(6698) 9 Mb
--- Putfile results C:\Users\MariaSosnovskaya\Downloads\WfmGams3\problems\gams_0064_002_32_04_0.67_05_0.10_0.90_25_results.txt
*** Status: Normal completion
--- Job gams_0064_002_32_04_0.67_05_0.10_0.90_25_problem.txt Stop 02/24/21 19:02:04 elapsed 0:01:18.977
